(set-logic ALL)
(declare-const n_VAR Int)
(assert (not (>= 3 n_VAR)))
(assert (not (>= 5 n_VAR)))
(assert (not (>= 6 n_VAR)))
(assert (not (>= 9 n_VAR)))
(assert (not (>= 10 n_VAR)))
(check-sat)
(get-value (n_VAR))
